STAFF = { Alice, Bob, Claire, Don, Edgar, Fritz, Gustav, Heinz, Ian, Jules, Kim, Lewis, Mike, Nick, Olivia, Pat, Rob, Steve, Trudy};
SKILL = { Captain, CoPilot, Cabin, English, Mandarin, Spanish };
VEHICLE = anon_enum(3);
salary = [ 10,10,10,10,8,8,8,8,6,6,6,6,6,6,6,6,6,6,6 ];
competence = array2d(STAFF,SKILL,
  [|1,0,0,0,0,0
   |1,0,0,0,0,0
   |1,0,0,0,0,0
   |1,0,0,0,0,0
   |0,1,0,0,0,0
   |0,1,0,0,0,0
   |0,1,0,0,0,0
   |0,1,0,0,0,0
   |0,0,1,1,0,1
   |0,0,1,0,1,1
   |0,0,1,1,1,0
   |0,0,1,0,1,0
   |0,0,1,1,1,1
   |0,0,1,1,0,1
   |0,0,1,0,1,1
   |0,0,1,1,1,0
   |0,0,1,0,1,0
   |0,0,1,1,1,1
   |0,0,1,1,0,1 |]);
required_competence = array3d(WEEKS,VEHICLE,SKILL,[ 1 | w in WEEKS, v in VEHICLE, sk in SKILL]);
n_weeks = 5;
max_together = 2;
max_consecutive = 0;